 &GLOBAL
   PRINT_LEVEL  MEDIUM
   PROJECT_NAME TiO2_01_00
   RUN_TYPE  MD
 &END GLOBAL
 &FORCE_EVAL
  METHOD  QS
  &DFT
    UKS .FALSE. 
    BASIS_SET_FILE_NAME BASIS_MOLOPT
    POTENTIAL_FILE_NAME POTENTIAL 
    &MGRID
      NGRIDS 12
      CUTOFF 300
      REL_CUTOFF 50
    &END MGRID
    &QS
      METHOD GPW
      EPS_DEFAULT 1.000E-14
    &END QS
    &POISSON
      PSOLVER MT 
      PERIODIC NONE
    &END
    &SCF
      &DIAGONALIZATION ON
      &END DIAGONALIZATION
      &MIXING
        ALPHA 0.3
        METHOD BROYDEN_MIXING
        NBROYDEN 8
      &END MIXING
      EPS_SCF 1.0E-6
      SCF_GUESS ATOMIC
      MAX_SCF  50
      ADDED_MOS 50
    &END SCF
    &XC
      &XC_FUNCTIONAL
         &PBE
         &END PBE
      &END XC_FUNCTIONAL
      &VDW_POTENTIAL
         POTENTIAL_TYPE PAIR_POTENTIAL 
         &PAIR_POTENTIAL
            PARAMETER_FILE_NAME dftd3.dat
            TYPE DFTD3
            REFERENCE_FUNCTIONAL PBE
            R_CUTOFF [angstrom] 16
         &END
      &END VDW_POTENTIAL
    &END XC
    &PRINT
      &MULLIKEN OFF
      &END
      &HIRSHFELD OFF
      &END
    &END PRINT
  &END DFT
  &SUBSYS

    &CELL
      A         10.000000000         0.0000000000         0.0000000000
      B         0.0000000000        10.000000000         0.0000000000
      C         0.0000000000         0.0000000000         10.000000000
      PERIODIC  NONE 
    &END CELL
    &VELOCITY
	0.000000000	-0.000042980	0.000004218
	0.000000000	0.000174851	-0.000049362
	0.000000000	-0.000046023	0.000036720
    &END VELOCITY

    &TOPOLOGY
      COORD_FILE_NAME 01_00.xyz
      COORD_FILE_FORMAT XYZ
      ! These two lines to center the geometry in the cell
      &CENTER_COORDINATES T
      &END
    &END

    &KIND  Ti
      BASIS_SET DZVP-MOLOPT-SR-GTH 
      POTENTIAL GTH-PBE-q12 
    &END KIND
    &KIND  O
      BASIS_SET DZVP-MOLOPT-GTH
      POTENTIAL GTH-PBE-q6
    &END KIND
  &END SUBSYS
 &END FORCE_EVAL

&MOTION
 &MD
   ENSEMBLE NVT
   TEMPERATURE [K] 300   #make it larger 3200
   TIMESTEP [fs] 1.0
   STEPS 4000
   &THERMOSTAT
     REGION GLOBAL
     TYPE NOSE
	 &NOSE
           ! adapt it based on the Ti-O stretch mode frequency
	   TIMECON 100
	 &END
   &END THERMOSTAT
 &END
 &PRINT
   &TRAJECTORY
     &EACH
       MD 1
     &END EACH
   &END TRAJECTORY
   &VELOCITIES ON
   &END VELOCITIES
   &FORCES ON
   &END FORCES
   &RESTART
     BACKUP_COPIES 1
     &EACH
       MD 1
     &END EACH
   &END RESTART
 &END PRINT 
&END 
